param set_len = 20;
param target = 112403;
param values := [0] 23284 [1] 22498 [2] 599 [3] 18338 [4] 3045 [5] 12667 [6] 1182 [7] 28057 [8] 23189 [9] 15387 [10] 28415 [11] 24942 [12] 23675 [13] 21231 [14] 7302 [15] 1071 [16] 1243 [17] 17968 [18] 13748 [19] 10779 ;
